NAME: random_30_1
TYPE: TSP
COMMENT: random_30_1
DIMENSION: 30
EDGE_WEIGHT_TYPE: EUC_2D
NODE_COORD_SECTION
1 449 191
2 131 253
3 173 193
4 92 92
5 235 22
6 468 38
7 432 261
8 296 423
9 33 35
10 100 89
11 309 329
12 292 413
13 25 110
14 67 331
15 131 123
16 136 238
17 335 23
18 156 108
19 333 248
20 215 360
21 120 146
22 193 466
23 45 187
24 416 185
25 80 202
26 278 115
27 393 54
28 233 412
29 400 301
30 423 205
